(declare-fun var0 () String)
(assert (str.in.re var0 (re.++ (re.* (re.+ (str.to.re "8"))) (re.++ (re.* (re.union (str.to.re "66") (str.to.re "77"))) (re.++ (re.+ (re.union (str.to.re "4") (str.to.re "5"))) (re.++ (re.union (re.+ (str.to.re "2")) (re.* (str.to.re "33"))) (re.union (re.* (str.to.re "0")) (re.+ (str.to.re "11")))))))))
(check-sat)